Instance name: /mnt/c/Users/ORG/CLionProjects/uMV-FSTSP/Murray_Chu_2015_test_data/FSTSP/FSTSP_10_customer_problems/20140810T123437v7

drone speed: 0.4 miles/minute
uav non-eligible customer: 10 
Printing number of nodes: 11

Gurobi Optimizer version 11.0.0 build v11.0.0rc2 (linux64 - "Ubuntu 22.04.3 LTS")

CPU model: 13th Gen Intel(R) Core(TM) i5-13500, instruction set [SSE2|AVX|AVX2]
Thread count: 10 physical cores, 20 logical processors, using up to 20 threads

Optimize a model with 44485 rows, 1957 columns and 1837894 nonzeros
Model fingerprint: 0x591b7e0b
Variable types: 11 continuous, 1946 integer (1814 binary)
Coefficient statistics:
  Matrix range     [6e-01, 2e+01]
  Objective range  [8e-01, 2e+01]
  Bounds range     [1e+00, 1e+00]
  RHS range        [1e+00, 9e+00]
Found heuristic solution: objective 161.5525321
Presolve removed 26210 rows and 796 columns
Presolve time: 3.95s
Presolved: 18275 rows, 1161 columns, 616605 nonzeros
Variable types: 9 continuous, 1152 integer (1152 binary)
Found heuristic solution: objective 148.4361113
Root relaxation presolved: 18275 rows, 1161 columns, 616605 nonzeros


Root simplex log...

Iteration    Objective       Primal Inf.    Dual Inf.      Time
    1764    3.1731874e+01   1.101547e+04   0.000000e+00      5s
    4263    3.9258454e+01   0.000000e+00   0.000000e+00      6s

Root relaxation: objective 3.925845e+01, 4263 iterations, 1.98 seconds (4.30 work units)

    Nodes    |    Current Node    |     Objective Bounds      |     Work
 Expl Unexpl |  Obj  Depth IntInf | Incumbent    BestBd   Gap | It/Node Time

     0     0   39.25845    0  142  148.43611   39.25845  73.6%     -    6s
H    0     0                     118.4810468   39.25845  66.9%     -    6s
H    0     0                      76.2258234   39.25845  48.5%     -    6s
H    0     0                      64.3807557   39.25845  39.0%     -    6s
     0     0   40.35852    0  179   64.38076   40.35852  37.3%     -    7s
H    0     0                      53.8948608   40.50935  24.8%     -    7s
     0     0   40.50935    0  178   53.89486   40.50935  24.8%     -    7s
     0     0   40.50935    0  181   53.89486   40.50935  24.8%     -    7s
     0     0   41.25181    0  187   53.89486   41.25181  23.5%     -    8s
     0     0   41.39217    0  195   53.89486   41.39217  23.2%     -    8s
     0     0   41.43320    0  189   53.89486   41.43320  23.1%     -    9s
     0     0   41.44692    0  183   53.89486   41.44692  23.1%     -    9s
     0     0   41.44773    0  182   53.89486   41.44773  23.1%     -    9s
     0     0   41.44850    0  184   53.89486   41.44850  23.1%     -    9s
     0     0   41.44870    0  186   53.89486   41.44870  23.1%     -    9s
     0     0   41.77974    0  209   53.89486   41.77974  22.5%     -    9s
     0     0   41.78020    0  207   53.89486   41.78020  22.5%     -    9s
H    0     0                      53.2991989   41.92129  21.3%     -   10s
     0     0   41.92129    0  210   53.29920   41.92129  21.3%     -   10s
     0     0   41.93591    0  205   53.29920   41.93591  21.3%     -   10s
     0     0   41.95198    0  218   53.29920   41.95198  21.3%     -   10s
     0     0   41.96224    0  211   53.29920   41.96224  21.3%     -   10s
     0     0   42.26886    0  254   53.29920   42.26886  20.7%     -   10s
H    0     0                      50.0040192   42.28271  15.4%     -   11s
     0     0   42.33777    0  246   50.00402   42.33777  15.3%     -   11s
     0     0   42.44103    0  251   50.00402   42.44103  15.1%     -   11s
     0     0   42.53144    0  254   50.00402   42.53144  14.9%     -   11s
     0     0   42.53144    0  255   50.00402   42.53144  14.9%     -   11s
     0     0   42.53144    0  258   50.00402   42.53144  14.9%     -   11s
     0     0   42.53144    0  256   50.00402   42.53144  14.9%     -   12s
     0     0   42.53144    0  258   50.00402   42.53144  14.9%     -   12s
     0     0   42.59620    0  241   50.00402   42.59620  14.8%     -   13s
     0     0   42.66861    0  263   50.00402   42.66861  14.7%     -   13s
     0     0   42.69305    0  271   50.00402   42.69305  14.6%     -   13s
     0     0   42.69542    0  254   50.00402   42.69542  14.6%     -   13s
     0     0   42.69675    0  274   50.00402   42.69675  14.6%     -   13s
H    0     0                      49.5813003   42.69675  13.9%     -   14s
     0     0   42.70155    0  280   49.58130   42.70155  13.9%     -   14s
     0     0   42.70673    0  282   49.58130   42.70673  13.9%     -   14s
     0     0   42.92703    0  290   49.58130   42.92703  13.4%     -   15s
     0     0   42.95267    0  288   49.58130   42.95267  13.4%     -   16s
     0     0   43.34211    0  288   49.58130   43.34211  12.6%     -   17s
     0     2   43.34211    0  288   49.58130   43.34211  12.6%     -   19s
     1     4   43.34211    1  253   49.58130   43.34211  12.6%   197   20s
    40    34   47.11549    6  179   49.58130   44.49461  10.3%   241   25s
    97    61   47.22249   10   83   49.58130   45.25783  8.72%   166   30s
   189    53     cutoff    9        49.58130   46.29698  6.62%   125   35s
   400    25   49.05656   12  177   49.58130   47.13984  4.92%  91.1   40s

Cutting planes:
  Cover: 26
  Clique: 4
  MIR: 9
  StrongCG: 2
  GUB cover: 2
  Zero half: 17
  Mod-K: 2
  RLT: 92

Explored 534 nodes (49040 simplex iterations) in 41.65 seconds (58.86 work units)
Thread count was 20 (of 20 available processors)

Solution count 9: 49.5813 50.004 53.2992 ... 161.553

Optimal solution found (tolerance 1.00e-04)
Best objective 4.958130032087e+01, best bound 4.958130032087e+01, gap 0.0000%
Truck arcs: 
0 9 1.31706
1 10 12.0132
4 8 1.94864
5 7 0.777831
6 5 0.955922
7 1 7.04774
8 6 5.60229
9 4 9.26756
10 11 6.43835
Theta:
Theta_2 = 1
Theta_3 = 1
Drone arcs:
0 2
2 4
3 1
4 3
Gamma:
gamma_2_0_9= 1
gamma_2_9_4= 1
gamma_3_4_8= 1
gamma_3_5_7= 1
gamma_3_6_5= 1
gamma_3_7_1= 1
gamma_3_8_6= 1
Sigma:
Sigma_1 = 0
Sigma_2 = 0
Sigma_3 = 1.21271
Sigma_4 = 0
Sigma_5 = 0
Sigma_6 = -0
Sigma_7 = -0
Sigma_8 = 0
Sigma_9 = 0
Sigma_10 = 0
Sigma_11 = 0
middle of 2 sortie are: 9 
middle of 3 sortie are: 5 6 7 8 
Objective: 49.5813
Number of sorties: 2
